70
1 0 2
2 0 2
3 1 1
3 2 11
4 0 3
4 1 15
4 2 17
5 0 14
5 1 8
5 4 12
6 0 17
6 1 18
6 2 18
6 3 11
7 1 10
7 3 12
7 4 10
7 5 18
8 0 20
8 1 18
8 3 8
8 6 9
8 7 19
9 0 13
9 3 18
9 4 5
9 5 10
9 6 1
9 7 4
10 0 8
10 2 1
10 4 4
10 6 4
10 7 10
10 9 18
11 0 8
11 1 5
11 2 10
11 3 5
11 7 10
11 8 7
12 1 5
12 2 5
12 5 4
12 6 4
12 7 12
12 8 12
12 9 10
12 10 19
12 11 6
13 0 12
13 1 12
13 2 1
13 3 1
13 4 8
13 6 14
13 7 2
13 9 9
13 11 2
14 0 16
14 1 1
14 2 3
14 3 3
14 5 12
14 7 17
14 8 11
14 9 14
14 11 16
14 12 9
14 13 11
15 1 18
15 2 2
15 3 7
15 4 17
15 8 8
15 9 4
15 10 3
15 11 17
15 13 1
15 14 3
16 0 7
16 3 10
16 5 10
16 7 9
16 8 15
16 9 14
16 10 19
16 12 19
16 13 17
16 14 18
16 15 9
17 0 15
17 3 1
17 4 8
17 7 5
17 8 6
17 12 13
17 13 4
17 14 2
17 15 19
18 1 19
18 3 4
18 6 9
18 7 4
18 8 17
18 9 20
18 11 6
18 13 10
18 14 2
18 15 1
18 17 16
19 1 2
19 2 5
19 5 2
19 6 9
19 7 13
19 8 14
19 9 18
19 10 8
19 11 1
19 13 8
19 17 4
19 18 13
20 0 18
20 3 1
20 4 4
20 5 1
20 6 5
20 7 5
20 8 19
20 12 11
20 13 9
20 15 11
20 16 13
20 18 14
20 19 9
21 1 16
21 2 5
21 3 6
21 6 15
21 7 10
21 8 10
21 9 1
21 10 19
21 11 15
21 12 16
21 13 19
21 15 12
21 16 13
21 17 1
21 20 10
22 1 6
22 4 17
22 5 12
22 6 9
22 7 18
22 10 20
22 12 8
22 13 4
22 14 12
22 15 13
22 16 15
22 19 13
22 21 9
23 0 15
23 1 2
23 2 8
23 4 8
23 6 3
23 7 17
23 9 17
23 10 5
23 11 16
23 12 17
23 13 20
23 15 13
23 16 9
23 19 6
23 20 17
23 21 12
23 22 7
24 0 17
24 1 3
24 2 9
24 3 20
24 5 16
24 6 6
24 9 19
24 10 2
24 11 19
24 12 8
24 13 5
24 17 5
24 18 15
24 23 11
25 2 19
25 3 7
25 4 18
25 5 5
25 6 12
25 7 8
25 8 4
25 10 16
25 11 20
25 12 15
25 13 3
25 14 11
25 15 15
25 17 4
25 18 4
25 19 6
25 20 17
25 21 8
25 23 5
26 0 9
26 1 12
26 2 12
26 3 13
26 4 18
26 5 12
26 8 12
26 9 15
26 11 18
26 12 15
26 13 3
26 15 19
26 16 8
26 17 6
26 20 19
26 21 14
26 22 16
26 23 12
26 25 13
27 0 12
27 1 4
27 3 15
27 4 8
27 5 18
27 6 12
27 7 17
27 8 7
27 10 11
27 11 1
27 12 9
27 14 20
27 15 1
27 17 18
27 18 15
27 19 11
27 22 19
27 23 6
27 25 16
27 26 19
28 0 11
28 1 6
28 2 5
28 4 18
28 6 1
28 7 14
28 8 7
28 9 7
28 10 18
28 12 7
28 13 14
28 14 2
28 15 8
28 16 7
28 18 13
28 19 15
28 21 10
28 23 19
28 24 2
28 25 20
28 26 4
29 0 6
29 2 20
29 4 5
29 6 15
29 8 20
29 11 3
29 12 9
29 13 3
29 14 16
29 15 3
29 16 4
29 17 19
29 18 1
29 19 4
29 20 5
29 21 8
29 22 14
29 23 20
29 25 4
29 26 18
29 28 6
30 0 15
30 2 16
30 3 18
30 4 10
30 5 18
30 6 8
30 7 11
30 8 20
30 9 2
30 11 7
30 12 2
30 14 15
30 15 19
30 16 20
30 17 20
30 18 20
30 19 8
30 20 15
30 21 2
30 22 7
30 24 14
30 25 9
30 26 20
30 27 3
30 28 8
31 1 11
31 2 19
31 3 4
31 4 10
31 9 13
31 11 18
31 12 18
31 14 4
31 15 18
31 16 15
31 17 10
31 18 4
31 19 16
31 20 3
31 21 9
31 22 20
31 23 8
31 24 12
31 25 1
31 26 11
31 30 6
32 1 6
32 2 15
32 3 2
32 5 4
32 6 3
32 8 20
32 10 19
32 13 8
32 14 14
32 15 15
32 17 7
32 19 20
32 23 3
32 25 7
32 27 1
32 28 14
32 29 2
33 1 14
33 2 10
33 3 5
33 4 12
33 6 2
33 7 16
33 8 16
33 10 7
33 11 7
33 12 7
33 13 11
33 15 16
33 16 4
33 17 13
33 19 14
33 21 4
33 22 7
33 23 1
33 24 11
33 25 14
33 26 11
33 27 9
33 31 7
34 0 7
34 1 19
34 2 18
34 3 20
34 4 5
34 5 17
34 6 16
34 7 11
34 8 5
34 9 5
34 10 13
34 11 11
34 12 19
34 13 19
34 14 3
34 15 9
34 16 16
34 17 11
34 19 11
34 20 8
34 21 3
34 22 10
34 24 9
34 25 10
34 26 3
34 27 18
34 29 9
34 31 16
34 32 6
34 33 8
35 0 16
35 1 10
35 2 15
35 3 13
35 8 13
35 9 5
35 10 16
35 11 20
35 12 6
35 13 15
35 14 18
35 18 3
35 20 6
35 22 6
35 24 12
35 25 10
35 26 8
35 29 7
35 32 2
35 33 9
36 1 6
36 5 5
36 7 20
36 8 9
36 9 6
36 12 2
36 14 5
36 15 7
36 16 9
36 17 1
36 19 18
36 21 7
36 22 8
36 23 5
36 24 6
36 25 15
36 26 14
36 28 3
36 29 20
36 30 4
36 31 19
36 32 4
36 33 16
36 34 7
36 35 8
37 0 19
37 1 20
37 2 3
37 3 14
37 4 2
37 6 9
37 7 15
37 8 7
37 9 1
37 10 16
37 11 13
37 12 15
37 13 7
37 14 7
37 15 2
37 16 11
37 17 18
37 18 5
37 19 19
37 20 16
37 21 1
37 22 3
37 24 12
37 25 4
37 26 11
37 27 18
37 30 7
37 32 7
37 33 3
37 34 10
37 35 11
37 36 1
38 3 13
38 4 4
38 6 3
38 8 3
38 10 19
38 11 3
38 14 14
38 19 8
38 22 17
38 23 14
38 26 19
38 27 2
38 28 4
38 29 10
38 30 14
38 31 8
38 35 5
38 36 15
38 37 17
39 5 5
39 6 2
39 7 12
39 8 20
39 9 13
39 10 15
39 12 14
39 13 14
39 14 3
39 15 15
39 16 7
39 17 17
39 18 16
39 20 13
39 21 6
39 23 9
39 25 20
39 26 7
39 27 9
39 28 3
39 30 20
39 31 17
39 32 15
39 34 20
39 35 15
39 37 14
40 2 10
40 3 4
40 5 14
40 6 9
40 9 5
40 10 15
40 12 20
40 13 16
40 15 10
40 16 12
40 17 8
40 20 16
40 22 12
40 23 13
40 24 9
40 25 4
40 26 11
40 27 1
40 28 14
40 29 9
40 30 17
40 31 19
40 33 8
40 35 9
40 37 15
40 38 14
40 39 6
41 0 8
41 3 7
41 4 11
41 10 12
41 11 1
41 12 14
41 13 7
41 15 8
41 16 12
41 17 2
41 19 9
41 22 15
41 24 19
41 26 17
41 27 2
41 32 20
41 33 6
41 34 12
41 36 19
41 37 16
41 38 7
41 39 11
41 40 2
42 1 5
42 3 17
42 4 4
42 5 9
42 6 7
42 8 7
42 10 9
42 13 17
42 15 2
42 16 11
42 17 1
42 18 5
42 19 8
42 23 9
42 24 10
42 26 4
42 27 6
42 28 4
42 31 16
42 34 2
42 35 9
42 36 18
42 37 6
42 38 4
42 39 1
42 41 13
43 0 17
43 1 19
43 2 12
43 5 20
43 6 3
43 8 12
43 9 9
43 10 9
43 12 14
43 13 20
43 14 16
43 15 15
43 16 12
43 17 19
43 18 3
43 19 17
43 20 5
43 21 14
43 22 19
43 23 16
43 25 4
43 26 10
43 27 10
43 29 17
43 31 20
43 32 5
43 34 9
43 37 13
43 38 6
43 40 9
43 42 15
44 0 17
44 4 8
44 6 6
44 7 14
44 8 3
44 9 13
44 10 14
44 11 12
44 14 17
44 15 4
44 17 7
44 18 13
44 19 18
44 20 11
44 21 12
44 22 2
44 23 11
44 26 2
44 27 16
44 29 7
44 30 12
44 31 7
44 32 4
44 33 17
44 35 1
44 37 3
44 38 10
44 39 12
44 41 15
45 2 7
45 3 13
45 4 8
45 5 18
45 8 6
45 9 14
45 10 8
45 11 5
45 12 3
45 14 16
45 15 5
45 17 9
45 19 19
45 21 6
45 22 2
45 23 18
45 24 6
45 26 2
45 27 15
45 28 19
45 29 5
45 30 16
45 31 18
45 32 2
45 33 19
45 34 3
45 35 14
45 36 16
45 37 13
45 38 14
45 40 13
45 41 5
45 42 8
45 43 17
45 44 12
46 0 15
46 1 4
46 2 20
46 4 14
46 5 7
46 6 20
46 7 13
46 8 7
46 10 6
46 11 13
46 12 17
46 13 17
46 14 4
46 17 19
46 20 13
46 21 12
46 22 9
46 23 16
46 26 3
46 27 6
46 28 16
46 29 12
46 30 14
46 32 18
46 33 6
46 34 14
46 36 12
46 37 20
46 39 8
46 40 3
46 41 2
46 42 9
46 43 18
46 44 4
46 45 2
47 0 6
47 1 4
47 2 3
47 4 10
47 5 20
47 6 3
47 7 18
47 8 3
47 9 14
47 10 10
47 11 5
47 12 3
47 13 2
47 15 19
47 16 13
47 18 3
47 19 10
47 20 1
47 21 18
47 22 1
47 23 3
47 24 18
47 25 9
47 26 14
47 27 2
47 28 15
47 31 19
47 32 5
47 33 7
47 35 19
47 37 7
47 39 5
47 40 13
47 41 1
47 42 6
47 43 8
47 45 2
47 46 14
48 0 12
48 3 1
48 4 14
48 5 9
48 6 16
48 7 6
48 9 7
48 10 3
48 12 8
48 13 14
48 14 6
48 15 17
48 16 18
48 17 18
48 18 20
48 19 13
48 20 4
48 22 8
48 23 15
48 24 17
48 25 15
48 26 15
48 27 11
48 28 9
48 29 12
48 30 11
48 32 15
48 34 20
48 35 6
48 36 10
48 37 6
48 39 10
48 40 4
48 41 1
48 44 19
48 45 18
48 46 15
48 47 7
49 0 2
49 1 16
49 2 6
49 3 18
49 5 19
49 6 16
49 8 15
49 9 11
49 10 9
49 11 16
49 12 12
49 13 14
49 15 20
49 17 12
49 19 9
49 20 1
49 21 3
49 22 20
49 23 18
49 24 1
49 25 4
49 26 10
49 27 1
49 28 3
49 29 20
49 31 5
49 32 5
49 33 14
49 34 19
49 36 13
49 37 19
49 38 20
49 39 6
49 40 17
49 41 5
49 42 9
49 43 16
49 44 10
49 46 14
49 48 17
50 1 17
50 2 15
50 3 19
50 4 17
50 5 1
50 9 18
50 11 15
50 12 7
50 14 15
50 15 2
50 16 3
50 17 17
50 19 3
50 20 18
50 21 2
50 23 9
50 24 11
50 25 8
50 26 9
50 28 11
50 29 5
50 31 12
50 32 16
50 34 2
50 35 3
50 36 9
50 37 14
50 38 10
50 39 9
50 40 6
50 42 19
50 43 2
50 44 11
50 45 10
50 46 13
50 47 20
50 48 18
50 49 3
51 0 13
51 1 11
51 2 1
51 3 17
51 6 14
51 7 15
51 8 6
51 10 20
51 11 16
51 12 7
51 13 17
51 14 5
51 15 5
51 16 4
51 17 11
51 18 8
51 20 10
51 23 15
51 24 7
51 26 4
51 27 16
51 28 3
51 29 8
51 30 14
51 34 12
51 35 9
51 38 12
51 39 5
51 40 19
51 41 19
51 43 9
51 44 15
51 46 9
51 47 18
51 48 2
51 50 18
52 0 4
52 1 2
52 2 8
52 3 10
52 4 5
52 5 1
52 6 12
52 7 16
52 9 14
52 10 13
52 11 17
52 12 14
52 13 15
52 15 4
52 18 4
52 19 9
52 20 18
52 21 20
52 22 11
52 28 17
52 30 11
52 31 1
52 32 11
52 36 17
52 37 1
52 38 1
52 39 11
52 40 15
52 41 5
52 42 12
52 43 7
52 44 7
52 45 13
52 47 15
52 48 19
52 49 11
52 50 9
53 0 4
53 2 4
53 3 2
53 4 17
53 6 16
53 8 18
53 9 7
53 11 14
53 12 18
53 13 3
53 14 19
53 15 8
53 16 20
53 17 11
53 18 3
53 19 2
53 21 5
53 22 7
53 23 20
53 25 15
53 26 7
53 27 9
53 29 12
53 30 18
53 32 10
53 33 19
53 34 18
53 36 3
53 37 20
53 38 15
53 39 18
53 40 8
53 41 18
53 43 6
53 44 16
53 45 14
53 47 17
53 48 5
53 49 3
53 51 9
53 52 16
54 0 6
54 1 2
54 2 12
54 3 2
54 4 3
54 5 10
54 6 5
54 7 15
54 9 9
54 10 3
54 11 15
54 12 7
54 13 6
54 14 12
54 15 9
54 17 18
54 18 10
54 20 7
54 21 4
54 22 3
54 23 3
54 24 19
54 26 8
54 27 15
54 28 16
54 29 20
54 30 4
54 31 1
54 32 6
54 33 14
54 36 7
54 37 2
54 39 9
54 40 11
54 41 3
54 42 2
54 44 16
54 45 18
54 46 17
54 47 14
54 48 2
54 49 18
54 50 13
54 51 9
54 53 11
55 0 1
55 1 15
55 2 8
55 3 2
55 4 15
55 5 8
55 7 7
55 9 10
55 10 9
55 12 18
55 13 18
55 14 4
55 15 7
55 16 5
55 17 4
55 18 12
55 19 4
55 20 4
55 21 20
55 22 10
55 23 2
55 24 6
55 27 8
55 29 18
55 30 13
55 31 17
55 32 18
55 33 4
55 36 17
55 37 6
55 40 19
55 41 20
55 42 10
55 43 15
55 44 18
55 46 10
55 48 11
55 49 16
55 50 1
55 52 9
55 53 16
56 0 1
56 1 14
56 3 4
56 5 16
56 6 15
56 8 16
56 10 10
56 11 20
56 12 16
56 15 7
56 16 5
56 17 11
56 18 3
56 19 8
56 20 17
56 21 2
56 22 12
56 23 9
56 24 20
56 25 8
56 26 18
56 27 18
56 28 5
56 29 3
56 30 3
56 31 16
56 32 19
56 33 13
56 36 2
56 37 15
56 39 4
56 40 18
56 41 11
56 42 20
56 43 8
56 44 1
56 46 4
56 47 16
56 49 6
56 50 7
56 51 11
56 52 9
57 0 4
57 1 15
57 2 17
57 3 14
57 5 17
57 6 4
57 7 17
57 8 11
57 9 16
57 12 9
57 13 15
57 14 3
57 15 8
57 16 10
57 18 9
57 20 10
57 21 3
57 22 7
57 23 15
57 25 2
57 26 3
57 27 19
57 28 12
57 29 9
57 30 6
57 32 18
57 33 2
57 35 11
57 38 19
57 39 20
57 42 2
57 43 16
57 44 19
57 45 9
57 47 16
57 50 2
57 51 7
57 52 13
57 53 14
57 54 6
57 55 3
57 56 4
58 0 2
58 1 16
58 2 17
58 5 17
58 7 16
58 8 9
58 14 8
58 15 4
58 16 9
58 17 12
58 18 1
58 20 8
58 21 14
58 25 7
58 27 8
58 30 9
58 32 15
58 33 18
58 34 16
58 35 5
58 36 5
58 37 17
58 38 4
58 41 3
58 42 6
58 43 2
58 44 14
58 46 16
58 47 15
58 48 16
58 49 5
58 50 3
58 51 18
58 52 8
58 55 3
58 56 4
59 0 3
59 1 5
59 2 14
59 4 11
59 5 8
59 6 17
59 7 4
59 8 5
59 9 7
59 10 13
59 11 5
59 13 11
59 14 13
59 16 5
59 18 7
59 19 4
59 20 2
59 21 10
59 22 12
59 23 18
59 24 7
59 25 2
59 26 19
59 27 4
59 28 10
59 29 17
59 30 18
59 31 15
59 33 5
59 34 19
59 35 2
59 36 14
59 37 2
59 38 15
59 40 7
59 41 2
59 42 4
59 45 15
59 46 19
59 47 15
59 48 15
59 50 15
59 51 6
59 52 7
59 53 2
59 56 12
59 57 3
59 58 19
60 0 11
60 2 15
60 3 7
60 4 9
60 5 20
60 6 4
60 8 2
60 9 14
60 10 5
60 11 10
60 12 17
60 13 2
60 14 20
60 15 17
60 16 11
60 19 3
60 20 5
60 21 17
60 22 16
60 23 7
60 26 4
60 28 16
60 30 12
60 31 19
60 33 17
60 35 5
60 37 18
60 38 9
60 39 14
60 40 15
60 41 9
60 42 9
60 43 11
60 45 1
60 46 2
60 47 16
60 48 8
60 50 10
60 51 3
60 53 20
60 54 20
60 57 3
60 58 6
60 59 6
61 0 19
61 1 6
61 2 10
61 3 12
61 7 16
61 9 16
61 11 1
61 12 20
61 13 19
61 14 14
61 16 3
61 17 20
61 18 7
61 19 3
61 20 9
61 21 19
61 22 2
61 23 18
61 24 17
61 25 8
61 26 12
61 27 1
61 30 16
61 31 2
61 34 20
61 35 2
61 36 12
61 38 2
61 39 7
61 40 8
61 43 2
61 46 14
61 47 15
61 48 18
61 49 8
61 51 14
61 52 2
61 53 20
61 54 3
61 55 9
61 56 19
61 57 10
61 58 6
61 59 10
61 60 8
62 0 9
62 1 1
62 2 12
62 3 13
62 4 4
62 6 7
62 9 17
62 12 15
62 14 1
62 16 12
62 18 5
62 19 10
62 20 12
62 22 8
62 23 11
62 24 12
62 25 19
62 26 5
62 27 7
62 28 16
62 29 18
62 30 2
62 31 4
62 32 13
62 34 10
62 35 5
62 36 13
62 37 6
62 38 7
62 39 19
62 41 11
62 43 16
62 44 15
62 45 18
62 46 6
62 48 7
62 51 15
62 52 2
62 55 1
62 56 7
62 57 17
62 58 6
62 60 19
63 2 6
63 3 1
63 5 12
63 8 9
63 9 13
63 10 8
63 12 11
63 14 6
63 16 18
63 17 15
63 18 16
63 19 1
63 20 10
63 21 15
63 23 16
63 24 16
63 25 18
63 27 20
63 28 17
63 29 12
63 31 20
63 32 18
63 33 4
63 34 18
63 36 7
63 37 9
63 38 11
63 39 9
63 40 5
63 42 10
63 43 3
63 44 15
63 47 18
63 48 15
63 49 19
63 50 5
63 52 1
63 54 13
63 56 8
63 57 20
63 58 8
63 60 19
63 61 10
63 62 12
64 1 17
64 2 4
64 4 6
64 5 9
64 6 5
64 7 8
64 9 10
64 10 4
64 11 5
64 12 15
64 15 15
64 16 8
64 17 9
64 18 18
64 19 9
64 20 11
64 24 19
64 25 5
64 29 8
64 30 2
64 31 8
64 32 17
64 34 12
64 35 9
64 36 19
64 38 7
64 39 4
64 40 14
64 43 20
64 46 20
64 49 9
64 50 15
64 52 7
64 54 19
64 56 16
64 57 14
64 58 17
64 60 10
64 61 8
64 62 20
65 0 14
65 2 5
65 4 1
65 5 16
65 6 6
65 8 2
65 9 3
65 10 13
65 12 14
65 14 6
65 15 6
65 17 5
65 18 14
65 19 16
65 20 11
65 22 10
65 23 14
65 24 18
65 25 20
65 26 8
65 28 1
65 29 2
65 30 3
65 31 16
65 32 11
65 33 14
65 35 16
65 36 8
65 37 12
65 38 11
65 39 8
65 42 12
65 43 3
65 44 13
65 47 20
65 49 18
65 51 13
65 52 12
65 53 1
65 55 19
65 57 20
65 58 16
65 59 10
65 61 7
65 64 19
66 0 19
66 1 12
66 2 2
66 3 17
66 4 3
66 5 15
66 7 7
66 8 6
66 9 19
66 10 13
66 12 18
66 13 12
66 16 9
66 17 6
66 19 12
66 20 14
66 21 4
66 22 16
66 24 8
66 25 12
66 26 3
66 27 1
66 28 4
66 29 11
66 30 7
66 31 16
66 33 18
66 34 2
66 35 8
66 36 18
66 37 17
66 39 12
66 42 18
66 44 10
66 45 18
66 46 7
66 47 13
66 48 2
66 49 7
66 50 18
66 51 9
66 52 18
66 54 10
66 55 15
66 57 6
66 58 13
66 60 15
66 61 12
66 62 4
66 63 4
66 64 16
66 65 19
67 0 17
67 1 16
67 2 14
67 3 8
67 5 1
67 7 7
67 9 12
67 10 1
67 11 9
67 12 16
67 13 6
67 14 7
67 15 9
67 16 3
67 17 8
67 20 3
67 21 18
67 22 8
67 24 13
67 25 14
67 26 1
67 28 4
67 29 9
67 30 14
67 33 5
67 34 5
67 35 3
67 36 17
67 39 10
67 40 13
67 42 14
67 44 16
67 47 15
67 51 14
67 52 11
67 54 10
67 56 3
67 57 18
67 58 18
67 59 17
67 60 7
67 61 3
67 62 16
67 63 9
67 64 19
67 65 4
67 66 17
68 0 8
68 1 3
68 3 16
68 4 18
68 6 16
68 7 18
68 8 20
68 11 15
68 13 5
68 14 8
68 15 8
68 16 6
68 17 1
68 18 17
68 19 9
68 20 18
68 21 6
68 22 5
68 23 8
68 24 7
68 25 3
68 26 15
68 27 19
68 28 18
68 29 15
68 30 17
68 31 2
68 32 1
68 33 14
68 34 2
68 36 16
68 38 20
68 39 12
68 40 16
68 41 17
68 42 15
68 43 2
68 45 12
68 48 5
68 49 10
68 50 18
68 51 15
68 53 12
68 54 1
68 55 5
68 56 18
68 57 15
68 58 7
68 59 11
68 60 6
68 61 17
68 64 14
68 65 17
68 66 4
69 0 15
69 1 8
69 2 10
69 3 6
69 4 18
69 6 13
69 7 1
69 9 15
69 11 3
69 12 2
69 13 9
69 14 4
69 16 16
69 20 5
69 21 6
69 24 5
69 25 7
69 27 12
69 29 4
69 30 1
69 32 12
69 33 10
69 35 13
69 36 14
69 37 9
69 38 18
69 39 14
69 40 14
69 41 15
69 42 8
69 44 12
69 45 15
69 46 8
69 47 6
69 49 12
69 51 11
69 52 8
69 53 19
69 54 5
69 55 2
69 58 6
69 59 5
69 61 20
69 63 11
69 66 15
69 67 10
69 68 11
